
Gurobi 9.5.2 (mac64[arm]) logging started Fri Apr 28 12:59:17 2023

Set parameter LogFile to value "Java/output/pure_mip_2_machine/scenario_seed_4_nJob_20_machineCount_2/mip_increment_2/log.txt"
Gurobi Optimizer version 9.5.2 build v9.5.2rc0 (mac64[arm])
Thread count: 8 physical cores, 8 logical processors, using up to 8 threads
Optimize a model with 634 rows, 5544 columns and 37640 nonzeros
Model fingerprint: 0xe27c6834
Variable types: 0 continuous, 5544 integer (5544 binary)
Coefficient statistics:
  Matrix range     [1e+00, 1e+02]
  Objective range  [4e+00, 8e+05]
  Bounds range     [1e+00, 1e+00]
  RHS range        [1e+00, 1e+00]
Presolve removed 73 rows and 1466 columns
Presolve time: 0.04s
Presolved: 561 rows, 4078 columns, 27803 nonzeros
Variable types: 0 continuous, 4078 integer (4076 binary)

Root relaxation: objective 9.058288e+04, 3111 iterations, 0.09 seconds (0.14 work units)

    Nodes    |    Current Node    |     Objective Bounds      |     Work
 Expl Unexpl |  Obj  Depth IntInf | Incumbent    BestBd   Gap | It/Node Time

     0     0 90582.8826    0  163          - 90582.8826      -     -    0s
     0     0 95744.4830    0  195          - 95744.4830      -     -    0s
     0     0 95750.9531    0  198          - 95750.9531      -     -    0s
H    0     0                    194233.00000 97840.9575  49.6%     -    0s
     0     0 97840.9575    0  233 194233.000 97840.9575  49.6%     -    0s
H    0     0                    194231.00000 97840.9575  49.6%     -    0s
     0     0 97893.6291    0  230 194231.000 97893.6291  49.6%     -    0s
     0     0 97902.9189    0  229 194231.000 97902.9189  49.6%     -    0s
     0     0 97916.2405    0  230 194231.000 97916.2405  49.6%     -    0s
     0     0 97917.2480    0  232 194231.000 97917.2480  49.6%     -    0s
H    0     0                    183849.00000 97917.2480  46.7%     -    0s
H    0     0                    175183.00000 99215.7410  43.4%     -    0s
     0     0 99215.7410    0  241 175183.000 99215.7410  43.4%     -    0s
     0     0 99357.1968    0  235 175183.000 99357.1968  43.3%     -    0s
     0     0 99363.7986    0  236 175183.000 99363.7986  43.3%     -    0s
     0     0 99366.0604    0  241 175183.000 99366.0604  43.3%     -    0s
H    0     0                    143285.00000 102848.115  28.2%     -    1s
     0     0 102848.115    0  283 143285.000 102848.115  28.2%     -    1s
H    0     0                    141041.00000 102848.115  27.1%     -    1s
H    0     0                    141039.00000 102848.115  27.1%     -    1s
H    0     0                    138795.00000 103719.672  25.3%     -    1s
     0     0 103719.672    0  283 138795.000 103719.672  25.3%     -    1s
     0     0 103784.473    0  275 138795.000 103784.473  25.2%     -    1s
     0     0 103805.481    0  290 138795.000 103805.481  25.2%     -    1s
     0     0 103805.670    0  297 138795.000 103805.670  25.2%     -    1s
     0     0 104476.946    0  264 138795.000 104476.946  24.7%     -    1s
H    0     0                    134785.00000 104476.946  22.5%     -    1s
     0     0 104480.552    0  257 134785.000 104480.552  22.5%     -    1s
     0     0 104961.755    0  282 134785.000 104961.755  22.1%     -    1s
H    0     0                    129337.00000 104961.755  18.8%     -    1s
     0     0 105227.452    0  324 129337.000 105227.452  18.6%     -    1s
     0     0 105271.909    0  290 129337.000 105271.909  18.6%     -    1s
     0     0 105284.036    0  325 129337.000 105284.036  18.6%     -    1s
     0     0 105882.189    0  339 129337.000 105882.189  18.1%     -    1s
     0     0 106039.585    0  336 129337.000 106039.585  18.0%     -    1s
     0     0 106044.081    0  335 129337.000 106044.081  18.0%     -    1s
     0     0 106392.028    0  323 129337.000 106392.028  17.7%     -    1s
     0     0 106521.083    0  347 129337.000 106521.083  17.6%     -    1s
     0     0 106532.984    0  353 129337.000 106532.984  17.6%     -    1s
     0     0 107152.507    0  335 129337.000 107152.507  17.2%     -    2s
     0     0 107152.507    0  170 129337.000 107152.507  17.2%     -    2s
     0     0 107152.507    0  275 129337.000 107152.507  17.2%     -    2s
     0     0 107152.507    0  253 129337.000 107152.507  17.2%     -    2s
     0     0 107152.507    0  270 129337.000 107152.507  17.2%     -    2s
H    0     0                    128209.00000 107152.507  16.4%     -    2s
     0     0 107152.507    0  333 128209.000 107152.507  16.4%     -    2s
     0     0 107222.540    0  279 128209.000 107222.540  16.4%     -    2s
     0     0 107226.386    0  274 128209.000 107226.386  16.4%     -    2s
     0     0 107339.696    0  307 128209.000 107339.696  16.3%     -    2s
H    0     0                    128207.00000 107339.696  16.3%     -    2s
     0     0 107385.546    0  321 128207.000 107385.546  16.2%     -    2s
     0     0 107387.241    0  318 128207.000 107387.241  16.2%     -    2s
     0     0 108244.144    0  334 128207.000 108244.144  15.6%     -    2s
     0     0 108493.696    0  297 128207.000 108493.696  15.4%     -    2s
     0     0 108509.308    0  306 128207.000 108509.308  15.4%     -    2s
     0     0 108764.141    0  316 128207.000 108764.141  15.2%     -    2s
     0     0 108789.569    0  328 128207.000 108789.569  15.1%     -    2s
     0     0 108808.615    0  328 128207.000 108808.615  15.1%     -    2s
     0     0 108812.776    0  330 128207.000 108812.776  15.1%     -    2s
     0     0 108965.136    0  336 128207.000 108965.136  15.0%     -    3s
     0     0 108999.805    0  325 128207.000 108999.805  15.0%     -    3s
     0     0 109024.742    0  332 128207.000 109024.742  15.0%     -    3s
     0     0 109025.848    0  329 128207.000 109025.848  15.0%     -    3s
     0     0 109189.731    0  328 128207.000 109189.731  14.8%     -    3s
     0     0 109234.842    0  342 128207.000 109234.842  14.8%     -    3s
     0     0 109237.789    0  307 128207.000 109237.789  14.8%     -    3s
     0     0 109399.978    0  322 128207.000 109399.978  14.7%     -    3s
     0     0 109565.043    0  334 128207.000 109565.043  14.5%     -    3s
     0     0 109576.373    0  344 128207.000 109576.373  14.5%     -    3s
H    0     0                    128205.00000 109576.373  14.5%     -    3s
     0     0 109773.723    0  305 128205.000 109773.723  14.4%     -    3s
     0     0 109869.643    0  331 128205.000 109869.643  14.3%     -    3s
     0     0 109929.017    0  328 128205.000 109929.017  14.3%     -    3s
     0     0 109942.399    0  356 128205.000 109942.399  14.2%     -    3s
     0     0 110069.818    0  362 128205.000 110069.818  14.1%     -    3s
     0     0 110101.637    0  376 128205.000 110101.637  14.1%     -    3s
     0     0 110113.870    0  386 128205.000 110113.870  14.1%     -    3s
     0     0 110269.495    0  356 128205.000 110269.495  14.0%     -    3s
     0     0 110269.495    0  356 128205.000 110269.495  14.0%     -    3s
     0     2 110278.213    0  356 128205.000 110278.213  14.0%     -    3s
H   31    38                    114008.00000 111033.473  2.61%   727    4s
H   71    31                    113646.00000 111274.158  2.09%   469    4s
H  119    30                    112222.00000 111955.663  0.24%   401    4s

Cutting planes:
  Gomory: 5
  Cover: 4
  Clique: 77
  MIR: 150
  StrongCG: 62
  GUB cover: 98
  Zero half: 17
  Mod-K: 1
  RLT: 14

Explored 148 nodes (89055 simplex iterations) in 4.99 seconds (8.65 work units)
Thread count was 8 (of 8 available processors)

Solution count 10: 112222 113646 114008 ... 141039

Optimal solution found (tolerance 1.00e-04)
Best objective 1.122220000000e+05, best bound 1.122220000000e+05, gap 0.0000%
